%chk=nmr.chk
# nmr rhf/6-311+g(2d,p) geom=check guess=read test

nmr calculation for the molecule in nmr.chk using rhf with the 6-311+g(2d,p) basis

0 1

