# RHF/6-31G(d) Pop=Full Test

single point energy calculation for formaldehyde

0 1
C
O  C 1.22
H1 C 1.08 O  120.0
H2 C 1.08 O -120.0 H1 0.0 

