# RHF/6-31G(d) Pop=Full Test

single point energy calculation for formaldehyde

0 1
C  0.0   0.0   0.0
O  0.0   1.22  0.0
H  0.94 -0.54  0.0
H -0.94 -0.54  0.0

