#p ghf/cc-pvdz  iop33(5=2) use=l802 use=l902 stable=opt iop(3/11=0) 

test 

0 2
H 0.00 0.00 0.00
H 0.00 0.00 2.00
H 0.00 0.00 4.00
 
