# ghf/cc-pvdz units=bohr iop33(5=2)  nosymm 
use=l802 use=l902 stab iop(3/11=0) 

test 

0 1
H 0.00 0.00 0.00
H 0.00 0.00 2.00
 
