#T RHF/6-31(d) Test

My first Gaussian job: water single point energy

0  1
O -0.464  0.177  0.0
H -0.464  1.137  0.0
H  0.441 -0.143  0.0

