%chk=S4model.chk
#T UMP4/sto-3g scan test

H4 model SPE calculation with CCSD in the 3-21g basis

0 1
 H              
 H  1   R

R 0.5 70 0.05

