#T RHF/6-31G(d) Stable=Opt Test

SPE calculation with stability test for singlet state of diatomic oxygen, usign RHF with 6-31G(d) basis

0 1
O
O 1 1.22

