#T UHF/6-31G(d) Opt=AddRedundant Guess=Mix Test

SPE calculation with stability test for singlet state of ozone, usign RHF with 6-31G(d) basis

0 1
O
O 1 1.272
O 2 1.272 1 116.8

