#T RHF/6-31G(d) Test

single point E of RS-1,2-dichloro-1,2-difluoro-ethane

0 1
C1
C2  C1 1.53
Cl1 C1 1.76 C2 109.5
Cl2 C2 1.76 C1 109.5 Cl1  180.0
H1  C1 1.09 C2 109.5 Cl2   60.0
H2  C2 1.09 C1 109.5 H1   -60.0
F1  C1 1.37 C2 109.5 Cl2  -60.0
F2  C2 1.37 C1 109.5 Cl1  -60.0

